1000 1678
1 2 3 4 5 6 7 8 9 10 11
0 6 12 13 14 15 16 17 18 19 20 21 22 23 24 25 26 27 28 29 30 31 32 33 34 35
0 36 37 38 39 40 41 42 43 44
0 45 46 47 48 49 50 51 52 53
0 6 7 26 33 54 55 56 57 58 59 60 61 62 63 64 65 66 67 68 69 70 71 72 73 74 75 76 77 78 79 80 81 82 83 84
0 85 86 87 88 89 90 91 92 93 94 95 96 97 98 99 100 101 102 103 104 105 106 107 108 109 110 111 112 113 114 115 116 117 118 119 120 121 122 123 124 125 126 127 128 129 130 131 132 133 134 135 136 137 138 139 140 141 142 143 144 145 146 147 148 149 150 151 152 153 154 155 156 157 158 159 160 161 162 163 164 165 166 167 168 169 170 171 172 173 174 175 176 177 178 179 180 181 182 183 184 185 186 187 188 189 190 191 192 193 194 195 196 197 198 199 200 201 202 203 204 205 206 207 208 209 210 211 212 213 214 215 216 217 218 219 220 221 222 223 224 225 226 227 228 229 230 231 232 233 234 235 236 237 238 239 240 241 242 243 244 245 246 247 248 249 250 251 252 253 254 255 256 257 258 259 260 261 262 263 264 265 266 267 268 269 270 271 272 273 274 275 276 277 278 279 280 281 282 283 284 285 286 287 288 289 290 291 292 293 294 295 296 297 298 299 300 301 302 303 304 305 306 307 308 309 310 311 312 313 314 315 316 317 318 319 320 321 322 323 324 325 326 327 328 329 330 331 332 333 334 335 336 337 338 339 340 341 342 343 344 345 346 347 348 349 350 351 352 353 354 355 356 357 358 359 360 361 362 363 364 365 366 367 368 369 370 371 372 373 374 375 376 377 378 379 380 381 382 383 384 385 386 387 388 389 390 391 392 393 394 395 396 397 398 399 400 401 402 403 404 405 406 407 408 409 410 411 412 413 414 415 416 417 418 419 420 421 422 423 424 425 426 427 428 429 430 431 432 433 434 435 436 437 438 439 440 441 442 443 444 445 446 447 448 449 450 451 452 453 454 455 456 457 458 459 460 461 462 463 464 465 466 467 468 469 470 471 472 473 474 475 476 477 478 479 480 481 482 483 484 485 486 487 488 489 490 491 492 493 494 495 496 497 498 499 500 501 502 503 504 505 506 507 508 509 510 511 512 513 514 515 516 517 518 519 520 521 522 523 524 525 526 527 528 529 530 531 532 533 534 535 536 537 538 539 540 541 542 543 544 545 546 547 548 549 550 551 552 553 554 555 556 557 558 559 560 561 562 563 564 565 566 567 568 569 570 571 572 573 574 575 576 577 578 579 580 581 582 583 584 585 586 587 588 589 590 591 592 593 594 595 596 597 598 599 600 601 602 603 604 605 606 607 608 609 610 611 612 613 614 615 616 617 618 619 620 621 622 623 624 625 626 627 628 629 630 631 632 633 634 635 636 637 638 639 640 641 642 643 644 645 646 647 648 649 650 651 652 653 654 655 656 657 658 659 660 661 662 663 664 665 666 667 668 669 670 671 672 673 674 675 676 677 678 679 680 681 682 683 684 685 686 687 688 689 690 691 692 693 694 695 696 697 698 699 700 701 702 703 704 705 706 707 708 709 710 711 712 713 714 715 716 717 718 719 720 721 722 723 724 725 726 727 728 729 730 731 732 733 734 735 736 737 738 739 740 741 742 743 744 745 746 747 748 749 750 751 752 753 754 755 756 757 758 759 760 761 762 763 764 765 766 767 768 769 770 771 772 773 774 775 776 777 778 779 780 781 782 783 784 785 786 787 788 789 790 791 792 793 794 795 796 797 798 799 800 801 802 803 804 805 806 807 808 809 810 811 812 813 814 815 816 817 818 819 820 821 822 823 824 825 826 827 828 829 830 831 832 833 834 835 836 837 838 839 840 841 842 843 844 845 846 847 848 849 850 851 852 853 854 855 856 857 858 859 860 861 862 863 864 865 866 867 868 869 870 871 872 873 874 875 876 877 878 879 880 881 882 883 884 885 886 887 888 889 890 891 892 893 894 895 896 897 898 899 900 901 902 903 904 905 906 907 908 909 910 911 912
0 1 4 17 23 26 29 32 33 913 914 915 916 917 918 919 920 921 922 923 924 925 926 927 928 929 930 931 932 933 934
0 4 26 57 58 63 68 69 70 72 78 79 81 83 935 936 937 938 939 940 941 942 943 944 945 946 947 948 949 950 951 952 953 954 955 956 957 958 959 960 961 962 963 964 965 966 967 968 969 970 971 972 973 974 975 976 977 978 979 980 981 982 983 984 985 986 987 988 989 990 991 992 993 994 995 996 997 998 999
0
0
0 26
0 79
1
1
1 913
1 23
1
1 6 929
1
1 67
1
1
1
1 6 15 33 918
1 913 925
1 307 327
1 4 6 7 10 982
1 30 34
1 785
1 6 33 918
1 27 34
1 456
1 6
1 4 6 23 29 55 84 918
1 27 30
1 217 489
2
2
2
2 43
2
2
2
2 39
2
3
3
3 50 52
3 52
3
3 47 52
3
3 47 48 50
3
4
4 33 84
4 60 62 63 83 937 968
4 7 69 83
4 7 60 63 69 83
4 60 76 83
4 56 58 59 62 63 64 68 69 76 78 83 937 968 972
4 70 961 982
4 56 60 63 68 76 83 937 956 968
4 7 56 58 60 62 80 83 937 940 961 994
4 60 66 69 78 83 948 972
4 83
4 64 71 78 81 83 948 972
4 19
4 7 60 62 76 83
4 7 57 58 60 64 81 83 942 947
4 7 61 72 82 946 963 975 994
4 66 80
4 7 70
4 78 83
4
4
4 59 60 62 68 83
4
4 7 60 64 66 73 80 81 83 942
4 7 11 982
4 63 71 78 83 937 954
4 7 66 69 78 83
4 70
4 7 56 57 58 59 60 62 63 64 65 66 68 69 73 76 78 80 81 937 942 968
4 33 55 954
5
5
5 903
5
5 328
5
5 114 166
5 485
5
5 512
5
5 412
5
5
5
5
5
5 181 613 730 769
5 816
5
5
5 549
5
5 245 353
5
5
5 342 825
5
5
5 91 150 172 269 299 386 543 567 687 762
5
5
5
5 359 730 884
5 612
5
5
5 711
5
5 151 262 343 545
5 978
5
5
5
5
5 796
5
5 352
5 445
5
5
5 167 571 873
5 299
5
5 572
5 487
5 263
5
5
5
5
5
5
5 354 660
5
5 114 254 299
5 124 343 431 641 665 748
5
5 641
5
5 507
5
5
5 281
5 757
5 368 674 849 858
5
5
5 397
5
5
5 91 569
5 136 571 706
5
5
5 332 636
5 286
5 114 218 399 713 841
5 366
5
5 442 708
5
5
5 398 415 883
5 193 231 267 600 887
5
5 102
5 189 597 644
5 258
5
5
5
5
5 245 299 509 549 558 573 674 864
5 182
5 486 678 831
5
5
5 179 218 356 372 414 558 612
5
5 526
5
5
5
5 245
5
5 554
5
5
5
5
5
5 516
5 286 391
5
5
5 412 660
5
5
5 441
5
5 711 727 895
5 35
5 172 193 316 470
5 737 829
5
5
5
5 872
5 505
5
5
5
5 336 369 372
5
5 646
5 179 340 345 600 649
5 411
5
5
5 694
5
5
5 520 548 912
5
5
5
5 520 629
5 268
5 699
5 108 188 199 299 347 414 424 440 509 545 558 573 838 882 884
5 779
5 506
5 370 402 714
5
5 285
5
5 266 495 851 893
5
5 150 257 277 398 845 868
5
5
5 254 324 398 431 866
5 183
5 328 517 978
5
5
5 124 265 568 838
5 141
5
5 262 288
5 252
5 179 569 734
5 243
5 114
5 395
5 912
5 459
5 331
5
5 324 354 431 641 689 753 780
5
5 254 398
5 821 832
5
5
5 158 424
5
5 722
5
5 250
5 171 208
5
5 265 444
5
5 853
5 531
5 399 618
5 730
5
5
5 500 883
5
5
5 114 137 150 188 245 414 509 558 573
5
5
5
5 619
5 412 660 755
5 370 621 832 887 903
5 405 772 833
5 25
5
5
5
5 803
5 428 617 650 709
5
5
5
5 218 720 759 841 999
5 370
5
5
5
5 552
5
5
5 257 275 354 431 638 641 687 797 906
5
5
5 25
5 89 259 517 845
5 838
5
5 273 908
5 170 479
5
5 770 887
5
5 228
5
5
5 728
5 231
5 375
5 111
5 124 151 495 834
5 748
5 231 399 414 421 440 600 882
5
5 245 838 884
5
5
5 532
5
5 132
5 108 793
5 148 275 324 517 660 687 882
5
5 193 780
5
5
5 118 426 554
5
5
5
5 652
5 434 495 714 827
5 471 609
5 173
5 370
5 160 454 849 858
5 228 372 440 797
5 248 305 317 367 422
5
5 193 228 369 843
5 411
5
5 341
5
5 493
5
5
5
5
5
5
5
5
5 114 688 713 762 826
5 540
5 399 412 495 663 816
5
5
5 208
5 414
5
5
5 270
5 634
5 163
5 178 254 257 277 845 853 868
5 172 292 345 388 540 663 753 872 875
5
5
5 248
5 523
5
5 306
5 737 887
5 789 866
5
5 543 751
5
5 232 373
5 96 211 304 388 495 517 534 540 568 644 714 816
5 763
5 193 245 299 345 392 440 558
5 178 883
5
5
5
5 440 801
5
5 345 440
5 370 818 849
5
5 245 281 428 617 779 816 818 827 843 850
5
5 359
5
5 312 424 757
5
5 552
5 151 257 275 324 641 687 906
5 526 640 834
5
5 364 522 714 827
5
5
5
5
5
5 245 345 369 414 419 421 462 854
5 214
5 175 769
5
5 288
5 133
5 561 790 826
5
5
5
5
5
5
5
5 368
5 487
5 31
5
5
5 272
5
5
5 440
5 896
5
5
5
5 520 555
5 495
5
5 218
5 365 561 934
5
5
5 880
5
5
5
5
5 332
5
5 928
5
5 904
5 785
5 92
5 190 801
5 140 455 885
5
5 35
5
5 717
5
5 377 689 769
5
5 252 343 364 388 412 468 540 568 644 663 696 827
5
5
5
5
5 296 632 883
5
5
5 870
5
5 224
5 247 530
5 155
5 565
5 188 245 299 895
5
5
5 94
5 892
5 691
5
5 207
5 259 328 354 412
5
5
5 238 242 467 555 595 790
5
5 434
5 403
5 795
5
5 195 432 719 835
5
5
5 634
5 506 535 731 776 821
5 291
5 350
5
5 412 660 755 843
5 530
5
5
5
5
5 387 399 412 495 568 644 816 856
5
5
5 114 409
5
5 124 245
5
5 678
5 238 730 790
5 106 188 858
5 593
5
5 321 430 619
5
5 201 359 615 794
5 467 520 611
5
5 798
5 188 193 245 299 414 573 583
5
5
5 446 471 660 714 790
5
5
5
5 508 759
5
5 114 589 853
5 262 412 495 540 827
5 166 267 734
5
5 136 167 698 873
5 139
5 188 245 299 558
5
5
5
5
5
5
5
5
5
5 558
5
5
5
5 632
5 865
5 567 822
5
5
5 896 907
5 550
5
5 520
5
5 182 635 896 899
5
5
5 179 231 345
5
5
5
5
5 713 999
5 698 893
5
5 722
5 365 644 816 934
5 636 934
5 555
5 119 193 882 887
5 102 899
5
5 554
5
5 312 424 873 883
5 292
5 303 552
5
5 305 832 887
5
5
5
5
5
5
5
5 242
5
5
5 500 587
5
5 396 529 807
5 597
5 170 610
5 749
5 324 887 999
5
5 432 834 875 999
5 151 153 275 324 431 687 906
5
5
5 182 412 495 540 609 843
5
5 230
5
5
5 231 722
5 312
5 700
5 363
5
5
5
5
5
5
5
5 148 211 304 354 534 561 755 826
5
5
5 388 399 495
5
5 151 674 748
5
5
5 678
5
5
5
5
5
5 160 188 665 694 849 858
5
5
5
5 190 547 668
5
5
5
5
5
5
5
5
5 114 324 354 431 641
5 386 797
5 275 493
5
5 514 733 740
5
5
5 235 674 719 858
5
5 495
5
5 571 606 826 893
5 244
5 651
5
5
5
5
5
5 167 812
5
5 175
5 312
5
5 122 216 758
5
5 172 386 605 887
5 248 364 412 434 561 800 827
5
5
5 491
5
5 526 694
5 316 999
5
5 283 608 649 911
5
5
5
5
5 216
5 339
5
5 102 118 293 548 884
5 530 834
5
5 691
5 267 569 753 903
5
5
5 219 406
5
5
5 691
5
5
5
5
5
5
5
5 151 344 665
5 637
5
5 409
5
5 275 399 734
5
5 304 534 660 826
5
5 159 428 790
5 711 780
5 316 565 841
5
5
5 114 386 865
5 413
5
5
5
5
5
5 102 442 493
5 334 907
5
5 306
5
5
5
5 530
5
5
5 246 424 800 818 858 904
5 275 356 758 801
5
5
5
5
5 28 484
5
5
5
5 407
5 446 520 548 561 757 826 835
5
5
5 353
5 554
5 524
5 130
5 324 369 688 826 865
5 557
5
5 714 779 818
5 419 486 780
5
5 311
5 806
5
5 804
5 634
5
5
5
5
5 706
5
5
5
5 103 388 412 424 540 609 818 827 843 850
5
5 422 424 779 800 816 827 843
5
5
5 278 530
5 589
5
5
5 111
5 386 446 660 698 755 790 797 840 934
5 364 424 434 495 568 714 816 818 850
5
5 219
5
5 190
5 278 305 621 903
5 306
5 343 432 640 731 879
5 526 790 908
5
5
5 245 262 329 347 881
5
5 826
5 172 316 759 999
5
5 372 424 534 644 816 818 850
5
5 254 328 398
5
5
5
5 160 368 422 674 858
5 424 816 827 843 873
5 252
5
5 290 398 567
5 440
5
5 540
5
5 160 368 549 674 694 779 849
5
5
5
5
5
5 188 897
5 588 762 797
5 257 407
5
5 254 398
5
5 503
5
5 223 399
5 136 571 617 850
5
5 399 640
5
5
5
5 834
5 474
5 838
5 245 345 354 612
5 178 296 415 500 617
5 118 245 347 730
5 487
5
5 179 305 334 406 612 621 638 713
5
5
5
5
5 513
5 252 606 698
5
5 216 509
5 463 592 597
5 864
5
5 597 613
5
5
5
5 87 305 734 832
5 483 779
5
5 324 431 641
5 592 770
5 331 835
5
5
5 722
5 238 271
6 14 24 931
6
6
6
6
6 23 29 33
6
6
6
6
6
6
6 24
6
6
6 481
6 17
6
6 913
6
6 962
6 471 609 610 826
7
7
7 56 60 62 63 80 83
7
7
7 63 960 975 981
7 947 980 994 995
7 69 78 83 988
7
7
7
7 70
7 69 941
7 64 66 972
7
7
7
7
7
7 80 84
7
7 62
7
7
7
7 940
7 61 63
7 933
7 70 980
7
7
7
7
7 56 60 62 83
7
7
7
7 60 64 66 948
7
7
7 70 940
7
7
7 125 259
7
7 941 963 994 995
7 940 990
7 26 61 79
7
7
7
7
7
7 942
7
7 981 994
7 994
7
7
7 63 70 941 980 990 991 995
7 941 980 994
7
7
7
7 316 605 638 640 720 841
